Cost: 1898
0-3-4-8-7-9-11-10-61-0
0-5-25-27-6-13-14-12-15-16-18-19-20-21-22-23-33-32-26-17-28-24-29-30-31-1-2-0
0-57-56-52-44-45-53-43-42-34-35-69-41-37-38-36-63-40-46-62-49-47-39-48-51-50-54-55-0
Cost: 1898
0-3-4-8-7-9-11-10-57-0
0-56-52-44-45-53-43-42-34-35-69-41-37-38-36-63-40-68-46-62-49-47-39-48-51-50-54-55-0
0-5-25-27-6-13-14-12-15-16-18-19-20-21-22-23-33-32-26-17-28-24-29-30-31-1-2-0
Cost: 1904
0-3-4-5-25-27-6-11-10-61-57-56-0
0-8-7-9-13-14-12-15-16-18-19-20-21-22-23-33-35-34-32-26-17-28-24-29-30-31-65-1-2-0
0-52-45-53-44-43-42-41-37-38-36-63-40-46-62-49-47-39-48-51-50-54-55-0
Cost: 1904
0-3-4-5-25-27-6-9-11-10-61-56-0
0-8-7-13-14-12-15-16-18-19-20-21-23-33-35-34-32-26-22-17-64-28-24-29-30-31-65-1-2-0
0-57-52-53-44-45-43-42-41-38-36-37-40-46-62-49-47-39-48-51-50-54-55-0
Cost: 1904
0-57-52-44-45-53-43-42-41-37-38-36-63-40-68-46-62-49-47-39-48-51-50-54-55-0
0-3-8-7-13-14-12-15-16-18-19-20-21-22-23-33-35-34-32-26-17-28-24-29-30-31-65-1-2-0
0-4-5-25-27-6-9-11-10-56-0
Cost: 1898
0-3-4-8-7-9-11-10-57-56-0
0-52-53-44-45-43-42-34-35-69-41-38-36-37-63-40-68-46-62-49-47-39-48-51-50-54-55-0
0-5-25-27-6-13-14-12-15-16-18-19-20-21-23-33-32-26-22-17-28-24-29-30-31-1-2-0
Cost: 1898
0-3-4-8-7-9-11-10-61-57-56-0
0-52-45-53-44-43-42-34-35-69-41-38-36-37-63-40-46-62-49-47-39-48-51-50-54-55-0
0-5-25-27-6-13-14-12-15-16-18-19-20-21-22-23-33-32-26-17-28-24-29-30-31-1-2-0
Cost: 1900
0-3-4-8-59-57-56-0
0-52-45-53-44-43-42-32-26-22-23-33-34-35-41-38-36-37-63-40-68-46-62-49-47-39-48-51-50-54-55-0
0-5-25-27-6-7-10-11-9-13-14-12-15-16-18-19-20-21-17-28-24-29-30-31-1-2-0
Cost: 1898
0-57-52-44-45-53-43-42-34-35-69-41-38-36-37-40-68-46-62-49-47-39-48-51-50-54-55-0
0-3-4-8-7-9-11-10-61-56-0
0-5-25-27-6-13-14-12-15-16-18-19-20-21-22-23-33-32-26-17-28-24-29-30-31-1-2-0
Cost: 1898
0-52-53-45-44-43-42-34-35-69-41-38-36-37-40-68-46-62-49-47-39-48-51-50-54-55-56-0
0-3-4-8-7-9-11-10-61-57-0
0-5-25-27-6-13-14-12-15-16-18-19-20-21-22-23-33-32-26-17-28-24-29-30-31-1-2-0
Cost: 1898
0-57-52-44-45-53-43-42-34-35-69-41-37-38-36-63-40-46-62-49-47-39-48-51-50-54-55-0
0-3-4-8-7-9-11-10-61-56-0
0-5-25-27-6-13-14-12-15-16-18-19-20-21-22-23-33-32-26-17-28-24-29-30-31-1-2-0
Cost: 1898
0-5-25-27-6-13-14-12-15-16-18-19-20-21-22-23-33-32-26-17-28-24-29-30-31-1-2-0
0-3-4-8-7-9-11-10-61-57-56-0
0-52-44-45-53-43-42-34-35-69-41-38-36-37-63-40-46-62-49-47-39-48-51-50-54-55-0
Cost: 1904
0-3-4-5-25-27-6-9-11-10-57-0
0-8-7-13-14-12-15-16-18-19-20-21-22-23-33-35-34-32-26-17-64-28-24-29-30-31-65-1-2-0
0-52-44-45-53-43-42-41-38-36-37-63-40-46-62-49-47-39-48-51-50-54-55-56-0
Cost: 1898
0-52-44-45-53-43-42-34-35-69-41-38-36-37-63-40-68-46-62-49-47-39-48-51-50-54-55-0
0-3-4-8-7-9-11-10-61-57-0
0-5-25-27-6-13-14-12-15-16-18-19-20-21-22-23-33-32-26-17-28-24-29-30-31-1-2-0
Cost: 1904
0-3-4-5-25-27-6-9-11-10-57-0
0-8-7-13-14-12-15-16-18-19-20-21-22-23-33-35-34-32-26-17-64-28-24-29-30-31-65-1-2-0
0-52-44-45-53-43-42-41-38-36-37-63-40-46-62-49-47-39-48-51-50-54-55-56-0
Cost: 1898
0-57-52-44-45-53-43-42-34-35-69-41-37-38-36-63-40-46-62-49-47-39-48-51-50-54-55-0
0-3-4-8-7-9-11-10-61-56-0
0-5-25-27-6-13-14-12-15-16-18-19-20-21-22-23-33-32-26-17-28-24-29-30-31-1-2-0
Cost: 1898
0-57-52-44-45-53-43-42-34-35-69-41-37-38-36-63-40-46-62-49-47-39-48-51-50-54-55-0
0-3-4-8-7-9-11-10-61-56-0
0-5-25-27-6-13-14-12-15-16-18-19-20-21-22-23-33-32-26-17-28-24-29-30-31-1-2-0
Cost: 1904
0-3-4-5-25-27-6-9-11-10-57-0
0-8-7-13-14-12-15-16-18-19-20-21-22-23-33-35-34-32-26-17-64-28-24-29-30-31-65-1-2-0
0-52-44-45-53-43-42-41-38-36-37-63-40-46-62-49-47-39-48-51-50-54-55-56-0
Cost: 1901
0-3-4-8-59-57-0
0-52-53-45-44-43-42-32-26-23-60-33-34-35-69-41-38-36-37-63-40-46-62-49-47-39-48-51-50-54-55-0
0-5-25-27-6-7-10-11-9-13-14-12-15-16-18-19-20-21-22-17-28-24-29-30-31-1-2-0
Cost: 1898
0-3-4-8-7-9-11-10-61-57-56-0
0-52-53-45-44-43-42-34-35-69-41-38-36-37-63-40-46-62-49-47-39-48-51-50-54-55-0
0-5-25-27-6-13-14-12-15-16-18-19-20-21-22-23-33-32-26-17-28-24-29-30-31-1-2-0
Cost: 1898
0-3-4-8-7-9-11-10-61-57-56-0
0-52-44-45-53-43-42-35-34-69-41-37-38-36-40-68-46-62-49-47-39-48-51-50-54-55-0
0-5-25-27-6-13-14-12-15-16-18-19-20-21-22-23-33-32-26-17-28-24-29-30-31-1-2-0
Cost: 1898
0-3-4-8-7-9-11-10-61-57-56-0
0-52-44-45-53-43-42-35-34-69-41-37-38-36-40-68-46-62-49-47-39-48-51-50-54-55-0
0-5-25-27-6-13-14-12-15-16-18-19-20-21-22-23-33-32-26-17-28-24-29-30-31-1-2-0
Cost: 1896
0-3-4-8-7-9-11-10-61-57-56-0
0-52-45-53-44-43-42-41-38-34-35-36-37-63-40-68-46-62-49-47-39-48-51-50-54-55-0
0-5-25-27-6-13-14-12-15-16-18-19-20-21-22-23-33-32-26-17-28-24-29-30-31-1-2-0
Cost: 1898
0-57-52-44-45-53-43-42-34-35-69-41-38-36-37-63-40-46-62-49-47-39-48-51-50-54-55-0
0-3-4-8-7-9-11-10-61-56-0
0-5-25-27-6-13-14-12-15-16-18-19-20-21-22-23-33-32-26-17-28-24-29-30-31-1-2-0
Cost: 1898
0-57-52-53-44-45-43-42-34-35-69-41-38-36-37-40-68-46-62-49-47-39-48-51-50-54-55-0
0-3-4-8-7-9-11-10-61-56-0
0-5-25-27-6-13-14-12-15-16-18-19-20-21-22-23-33-32-26-17-28-24-29-30-31-1-2-0
Cost: 1898
0-57-52-44-45-53-43-42-34-35-69-41-38-36-37-63-40-46-62-49-47-39-48-51-50-54-55-0
0-3-4-8-7-9-11-10-61-56-0
0-5-25-27-6-13-14-12-15-16-18-19-20-21-22-23-33-32-26-17-28-24-29-30-31-1-2-0
Cost: 1898
0-3-4-8-7-9-11-10-61-57-56-0
0-52-53-45-44-43-42-34-35-69-41-38-36-37-63-40-46-62-49-47-39-48-51-50-54-55-0
0-5-25-27-6-13-14-12-15-16-18-19-20-21-22-23-33-32-26-17-28-24-29-30-31-1-2-0
Cost: 1898
0-3-4-8-7-9-11-10-61-57-56-0
0-52-44-45-53-43-42-35-34-69-41-37-38-36-40-68-46-62-49-47-39-48-51-50-54-55-0
0-5-25-27-6-13-14-12-15-16-18-19-20-21-22-23-33-32-26-17-28-24-29-30-31-1-2-0
Cost: 1898
0-3-4-8-7-9-11-10-61-57-56-0
0-52-44-45-53-43-42-35-34-69-41-37-38-36-40-68-46-62-49-47-39-48-51-50-54-55-0
0-5-25-27-6-13-14-12-15-16-18-19-20-21-22-23-33-32-26-17-28-24-29-30-31-1-2-0
Cost: 1898
0-3-4-8-7-9-11-10-57-0
0-52-53-44-45-43-42-34-35-69-41-37-38-36-63-40-68-46-62-49-47-39-48-51-50-54-55-56-0
0-5-25-27-6-13-14-12-15-16-18-19-20-21-22-23-33-32-26-17-28-24-29-30-31-1-2-0
Cost: 1904
0-3-4-5-25-27-6-9-11-10-56-0
0-57-52-53-45-44-43-42-41-37-38-36-63-40-68-46-62-49-47-39-48-51-50-54-55-0
0-8-7-13-14-12-15-16-18-19-20-21-22-23-33-35-34-32-26-17-28-24-29-30-31-65-1-2-0
Cost: 1905
0-4-8-7-9-11-10-61-57-0
0-56-52-53-45-44-43-42-32-26-22-23-33-34-35-41-38-36-37-40-68-46-62-49-47-39-48-51-50-54-55-0
0-3-5-25-27-6-13-14-12-15-16-18-19-20-21-17-64-28-24-29-30-31-1-2-0
Cost: 1896
0-3-4-8-7-9-11-10-61-57-0
0-56-52-53-44-45-43-42-41-38-35-34-36-37-63-40-68-46-62-49-47-39-48-51-50-54-55-0
0-5-25-27-6-13-14-12-15-16-18-19-20-21-22-23-33-32-26-17-28-24-29-30-31-1-2-0
Cost: 1896
0-56-52-53-44-45-43-42-41-38-34-35-36-37-63-40-68-46-62-49-47-39-48-51-50-54-55-0
0-3-4-8-7-9-11-10-61-57-0
0-5-25-27-6-13-14-12-15-16-18-19-20-21-23-33-32-26-22-17-28-24-29-30-31-1-2-0
